
Log started (V11.0.0) Sat May 17 03:44:20 2008

Tried aggregator 1 time.
Reduced MIP has 510 rows, 5001 columns, and 10010 nonzeros.
Presolve time =    0.03 sec.
Clique table members: 500.
MIP emphasis: balance optimality and feasibility.
MIP search method: dynamic search.
Parallel mode: none, using 1 thread.
Root relaxation solution time =    0.14 sec.

        Nodes                                         Cuts/
   Node  Left     Objective  IInf  Best Integer     Best Node    ItCnt     Gap

*     0+    0                        55275.0000     5070.6733      526   90.83%
*     0+    0                         5099.0000     5070.6733      526    0.56%
      0     0     5071.0000    16     5099.0000      Fract: 6      532    0.55%
      0     0     5071.0000    16     5099.0000     Covers: 1      553    0.55%
*     0+    0                         5088.0000     5071.0000      553    0.33%
      0     0     5071.0000    18     5088.0000     Covers: 1      560    0.33%
      0     2     5071.0000    18     5088.0000     5071.0000      560    0.33%
*    30+   28                         5086.0000     5071.0000      951    0.29%
*    40+   36                         5085.0000     5071.0000     1145    0.28%
    100    93     5073.0066    19     5085.0000     5071.0000     2507    0.28%
*   200+  174                         5082.0000     5071.0000     7740    0.22%
    200   175     5075.1343    19     5082.0000     5071.0000     7740    0.22%
    300   240     5077.0000    14     5082.0000     5071.0000    16210    0.22%
*   400+  257                         5079.0000     5071.0000    20501    0.16%
    400   259     5071.0000    16     5079.0000     5071.0000    20501    0.16%
    500   352     5072.0000    20     5079.0000     5071.0000    22707    0.16%
*   531+  360                         5078.0000     5071.0000    23746    0.14%
    600   370     5074.0000    18     5078.0000     5072.0000    26446    0.12%
*   633+  283                         5077.0000     5072.0000    27045    0.10%
*   633+  221                         5076.0000     5072.0000    27045    0.08%
    700   233     5075.0000    19     5076.0000     5072.0000    32195    0.08%
*   733+  109                         5075.0000     5072.0000    35182    0.06%
    800   130     5073.0000    16     5075.0000     5072.0000    37386    0.06%
    900   183     5073.8079    21     5075.0000     5072.0000    42880    0.06%
   1000   241     5073.3946    23     5075.0000     5072.0000    48726    0.06%
Elapsed time =  28.94 sec. (tree size =  0.39 MB, solutions = 11)
   1100   287     5073.0000    17     5075.0000     5072.0000    55248    0.06%
   1200   332     5073.0000    17     5075.0000     5072.0000    63724    0.06%
   1300   399     5073.0000    20     5075.0000     5072.0000    70380    0.06%
   1400   429     5074.0000    16     5075.0000     5072.0000    84028    0.06%
   1500   507     5073.0000    16     5075.0000     5072.0000    88004    0.06%
   1600   592     5074.0000    18     5075.0000     5072.0000    90755    0.06%
*  1633+  409                         5074.0000     5072.0000    91598    0.04%
*  1633+  139                         5073.0000     5072.0000    91598    0.02%
   1700   194     5072.0000    20     5073.0000     5072.0000    93273    0.02%
   1800   242     5072.0000    12     5073.0000     5072.0000   100968    0.02%
   1900   294     5072.0000    16     5073.0000     5072.0000   111406    0.02%
   2000   369    infeasible           5073.0000     5072.0000   115925    0.02%
Elapsed time =  50.98 sec. (tree size =  0.57 MB, solutions = 13)
   2100   457     5072.0000    25     5073.0000     5072.0000   118517    0.02%
   2200   531     5072.0000    22     5073.0000     5072.0000   123151    0.02%
   2300   590     5072.0000    30     5073.0000     5072.0000   127740    0.02%
*  2333+    1                         5072.0000     5072.0000   129660    0.00%

Cover cuts applied:  101
Mixed integer rounding cuts applied:  2
Gomory fractional cuts applied:  2

Solution pool: 14 solutions saved.

MIP - Integer optimal solution:  Objective = 5.0720000000e+003
Solution time =   56.77 sec.  Iterations = 129660  Nodes = 2333


Incumbent solution
Variable Name           Solution Value
Cmax                       5072.000000
X_1_6                         1.000000
X_2_1                         1.000000
X_3_1                         1.000000
X_4_6                         1.000000
X_5_8                         1.000000
X_6_5                         1.000000
X_7_1                         1.000000
X_8_3                         1.000000
X_9_10                        1.000000
X_10_7                        1.000000
X_11_4                        1.000000
X_12_10                       1.000000
X_13_1                        1.000000
X_14_2                        1.000000
X_15_8                        1.000000
X_16_10                       1.000000
X_17_4                        1.000000
X_18_3                        1.000000
X_19_1                        1.000000
X_20_8                        1.000000
X_21_5                        1.000000
X_22_7                        1.000000
X_23_1                        1.000000
X_24_7                        1.000000
X_25_9                        1.000000
X_26_5                        1.000000
X_27_3                        1.000000
X_28_6                        1.000000
X_29_9                        1.000000
X_30_4                        1.000000
X_31_10                       1.000000
X_32_3                        1.000000
X_33_10                       1.000000
X_34_5                        1.000000
X_35_5                        1.000000
X_36_1                        1.000000
X_37_8                        1.000000
X_38_3                        1.000000
X_39_5                        1.000000
X_40_2                        1.000000
X_41_7                        1.000000
X_42_1                        1.000000
X_43_9                        1.000000
X_44_10                       1.000000
X_45_7                        1.000000
X_46_6                        1.000000
X_47_7                        1.000000
X_48_3                        1.000000
X_49_7                        1.000000
X_50_9                        1.000000
X_51_5                        1.000000
X_52_8                        1.000000
X_53_7                        1.000000
X_54_8                        1.000000
X_55_7                        1.000000
X_56_8                        1.000000
X_57_10                       1.000000
X_58_6                        1.000000
X_59_4                        1.000000
X_60_8                        1.000000
X_61_5                        1.000000
X_62_5                        1.000000
X_63_1                        1.000000
X_64_8                        1.000000
X_65_6                        1.000000
X_66_5                        1.000000
X_67_3                        1.000000
X_68_10                       1.000000
X_69_7                        1.000000
X_70_8                        1.000000
X_71_2                        1.000000
X_72_1                        1.000000
X_73_9                        1.000000
X_74_8                        1.000000
X_75_3                        1.000000
X_76_8                        1.000000
X_77_6                        1.000000
X_78_10                       1.000000
X_79_5                        1.000000
X_80_10                       1.000000
X_81_6                        1.000000
X_82_9                        1.000000
X_83_10                       1.000000
X_84_1                        1.000000
X_85_1                        1.000000
X_86_2                        1.000000
X_87_2                        1.000000
X_88_5                        1.000000
X_89_7                        1.000000
X_90_1                        1.000000
X_91_1                        1.000000
X_92_4                        1.000000
X_93_8                        1.000000
X_94_1                        1.000000
X_95_5                        1.000000
X_96_3                        1.000000
X_97_4                        1.000000
X_98_6                        1.000000
X_99_10                       1.000000
X_100_8                       1.000000
X_101_1                       1.000000
X_102_2                       1.000000
X_103_1                       1.000000
X_104_4                       1.000000
X_105_9                       1.000000
X_106_9                       1.000000
X_107_4                       1.000000
X_108_10                      1.000000
X_109_6                       1.000000
X_110_4                       1.000000
X_111_9                       1.000000
X_112_4                       1.000000
X_113_3                       1.000000
X_114_6                       1.000000
X_115_4                       1.000000
X_116_5                       1.000000
X_117_7                       1.000000
X_118_6                       1.000000
X_119_8                       1.000000
X_120_2                       1.000000
X_121_7                       1.000000
X_122_9                       1.000000
X_123_7                       1.000000
X_124_3                       1.000000
X_125_5                       1.000000
X_126_2                       1.000000
X_127_2                       1.000000
X_128_2                       1.000000
X_129_1                       1.000000
X_130_2                       1.000000
X_131_10                      1.000000
X_132_9                       1.000000
X_133_1                       1.000000
X_134_6                       1.000000
X_135_8                       1.000000
X_136_1                       1.000000
X_137_2                       1.000000
X_138_2                       1.000000
X_139_1                       1.000000
X_140_2                       1.000000
X_141_9                       1.000000
X_142_6                       1.000000
X_143_3                       1.000000
X_144_6                       1.000000
X_145_8                       1.000000
X_146_6                       1.000000
X_147_6                       1.000000
X_148_4                       1.000000
X_149_1                       1.000000
X_150_10                      1.000000
X_151_1                       1.000000
X_152_1                       1.000000
X_153_2                       1.000000
X_154_7                       1.000000
X_155_5                       1.000000
X_156_5                       1.000000
X_157_1                       1.000000
X_158_5                       1.000000
X_159_9                       1.000000
X_160_2                       1.000000
X_161_3                       1.000000
X_162_3                       1.000000
X_163_10                      1.000000
X_164_6                       1.000000
X_165_7                       1.000000
X_166_1                       1.000000
X_167_4                       1.000000
X_168_1                       1.000000
X_169_5                       1.000000
X_170_10                      1.000000
X_171_1                       1.000000
X_172_6                       1.000000
X_173_7                       1.000000
X_174_8                       1.000000
X_175_9                       1.000000
X_176_6                       1.000000
X_177_7                       1.000000
X_178_3                       1.000000
X_179_6                       1.000000
X_180_1                       1.000000
X_181_6                       1.000000
X_182_10                      1.000000
X_183_6                       1.000000
X_184_5                       1.000000
X_185_7                       1.000000
X_186_8                       1.000000
X_187_8                       1.000000
X_188_5                       1.000000
X_189_8                       1.000000
X_190_2                       1.000000
X_191_6                       1.000000
X_192_3                       1.000000
X_193_10                      1.000000
X_194_4                       1.000000
X_195_8                       1.000000
X_196_3                       1.000000
X_197_6                       1.000000
X_198_6                       1.000000
X_199_10                      1.000000
X_200_2                       1.000000
X_201_1                       1.000000
X_202_3                       1.000000
X_203_4                       1.000000
X_204_2                       1.000000
X_205_10                      1.000000
X_206_6                       1.000000
X_207_10                      1.000000
X_208_9                       1.000000
X_209_1                       1.000000
X_210_9                       1.000000
X_211_3                       1.000000
X_212_5                       1.000000
X_213_8                       1.000000
X_214_8                       1.000000
X_215_7                       1.000000
X_216_9                       1.000000
X_217_8                       1.000000
X_218_7                       1.000000
X_219_5                       1.000000
X_220_6                       1.000000
X_221_2                       1.000000
X_222_6                       1.000000
X_223_2                       1.000000
X_224_6                       1.000000
X_225_10                      1.000000
X_226_9                       1.000000
X_227_9                       1.000000
X_228_7                       1.000000
X_229_2                       1.000000
X_230_4                       1.000000
X_231_9                       1.000000
X_232_8                       1.000000
X_233_9                       1.000000
X_234_2                       1.000000
X_235_2                       1.000000
X_236_2                       1.000000
X_237_8                       1.000000
X_238_2                       1.000000
X_239_3                       1.000000
X_240_5                       1.000000
X_241_3                       1.000000
X_242_10                      1.000000
X_243_3                       1.000000
X_244_3                       1.000000
X_245_4                       1.000000
X_246_9                       1.000000
X_247_4                       1.000000
X_248_10                      1.000000
X_249_6                       1.000000
X_250_9                       1.000000
X_251_3                       1.000000
X_252_3                       1.000000
X_253_3                       1.000000
X_254_2                       1.000000
X_255_4                       1.000000
X_256_1                       1.000000
X_257_4                       1.000000
X_258_5                       1.000000
X_259_7                       1.000000
X_260_2                       1.000000
X_261_8                       1.000000
X_262_9                       1.000000
X_263_4                       1.000000
X_264_5                       1.000000
X_265_2                       1.000000
X_266_8                       1.000000
X_267_2                       1.000000
X_268_4                       1.000000
X_269_5                       1.000000
X_270_7                       1.000000
X_271_4                       1.000000
X_272_7                       1.000000
X_273_7                       1.000000
X_274_4                       1.000000
X_275_4                       1.000000
X_276_4                       1.000000
X_277_3                       1.000000
X_278_7                       1.000000
X_279_4                       1.000000
X_280_4                       1.000000
X_281_8                       1.000000
X_282_7                       1.000000
X_283_8                       1.000000
X_284_10                      1.000000
X_285_10                      1.000000
X_286_9                       1.000000
X_287_9                       1.000000
X_288_1                       1.000000
X_289_2                       1.000000
X_290_2                       1.000000
X_291_9                       1.000000
X_292_10                      1.000000
X_293_3                       1.000000
X_294_4                       1.000000
X_295_4                       1.000000
X_296_3                       1.000000
X_297_4                       1.000000
X_298_9                       1.000000
X_299_8                       1.000000
X_300_1                       1.000000
X_301_5                       1.000000
X_302_1                       1.000000
X_303_4                       1.000000
X_304_3                       1.000000
X_305_3                       1.000000
X_306_7                       1.000000
X_307_6                       1.000000
X_308_9                       1.000000
X_309_4                       1.000000
X_310_8                       1.000000
X_311_8                       1.000000
X_312_10                      1.000000
X_313_9                       1.000000
X_314_9                       1.000000
X_315_1                       1.000000
X_316_5                       1.000000
X_317_3                       1.000000
X_318_3                       1.000000
X_319_7                       1.000000
X_320_6                       1.000000
X_321_7                       1.000000
X_322_5                       1.000000
X_323_2                       1.000000
X_324_7                       1.000000
X_325_9                       1.000000
X_326_8                       1.000000
X_327_10                      1.000000
X_328_2                       1.000000
X_329_9                       1.000000
X_330_10                      1.000000
X_331_8                       1.000000
X_332_6                       1.000000
X_333_4                       1.000000
X_334_2                       1.000000
X_335_1                       1.000000
X_336_1                       1.000000
X_337_5                       1.000000
X_338_2                       1.000000
X_339_4                       1.000000
X_340_6                       1.000000
X_341_7                       1.000000
X_342_10                      1.000000
X_343_7                       1.000000
X_344_1                       1.000000
X_345_1                       1.000000
X_346_9                       1.000000
X_347_8                       1.000000
X_348_10                      1.000000
X_349_5                       1.000000
X_350_8                       1.000000
X_351_3                       1.000000
X_352_7                       1.000000
X_353_6                       1.000000
X_354_1                       1.000000
X_355_2                       1.000000
X_356_9                       1.000000
X_357_5                       1.000000
X_358_9                       1.000000
X_359_4                       1.000000
X_360_6                       1.000000
X_361_6                       1.000000
X_362_1                       1.000000
X_363_7                       1.000000
X_364_3                       1.000000
X_365_5                       1.000000
X_366_7                       1.000000
X_367_4                       1.000000
X_368_9                       1.000000
X_369_7                       1.000000
X_370_10                      1.000000
X_371_10                      1.000000
X_372_10                      1.000000
X_373_7                       1.000000
X_374_4                       1.000000
X_375_4                       1.000000
X_376_4                       1.000000
X_377_2                       1.000000
X_378_1                       1.000000
X_379_10                      1.000000
X_380_5                       1.000000
X_381_2                       1.000000
X_382_10                      1.000000
X_383_3                       1.000000
X_384_4                       1.000000
X_385_6                       1.000000
X_386_2                       1.000000
X_387_6                       1.000000
X_388_10                      1.000000
X_389_9                       1.000000
X_390_3                       1.000000
X_391_10                      1.000000
X_392_3                       1.000000
X_393_6                       1.000000
X_394_9                       1.000000
X_395_4                       1.000000
X_396_8                       1.000000
X_397_5                       1.000000
X_398_10                      1.000000
X_399_9                       1.000000
X_400_5                       1.000000
X_401_6                       1.000000
X_402_2                       1.000000
X_403_9                       1.000000
X_404_3                       1.000000
X_405_4                       1.000000
X_406_10                      1.000000
X_407_8                       1.000000
X_408_3                       1.000000
X_409_10                      1.000000
X_410_1                       1.000000
X_411_3                       1.000000
X_412_4                       1.000000
X_413_9                       1.000000
X_414_6                       1.000000
X_415_5                       1.000000
X_416_6                       1.000000
X_417_7                       1.000000
X_418_8                       1.000000
X_419_8                       1.000000
X_420_5                       1.000000
X_421_5                       1.000000
X_422_4                       1.000000
X_423_2                       1.000000
X_424_8                       1.000000
X_425_5                       1.000000
X_426_8                       1.000000
X_427_1                       1.000000
X_428_8                       1.000000
X_429_6                       1.000000
X_430_7                       1.000000
X_431_5                       1.000000
X_432_8                       1.000000
X_433_5                       1.000000
X_434_7                       1.000000
X_435_9                       1.000000
X_436_8                       1.000000
X_437_7                       1.000000
X_438_9                       1.000000
X_439_9                       1.000000
X_440_10                      1.000000
X_441_7                       1.000000
X_442_3                       1.000000
X_443_10                      1.000000
X_444_3                       1.000000
X_445_4                       1.000000
X_446_9                       1.000000
X_447_4                       1.000000
X_448_10                      1.000000
X_449_7                       1.000000
X_450_10                      1.000000
X_451_7                       1.000000
X_452_8                       1.000000
X_453_8                       1.000000
X_454_7                       1.000000
X_455_1                       1.000000
X_456_2                       1.000000
X_457_1                       1.000000
X_458_2                       1.000000
X_459_1                       1.000000
X_460_9                       1.000000
X_461_6                       1.000000
X_462_2                       1.000000
X_463_5                       1.000000
X_464_3                       1.000000
X_465_5                       1.000000
X_466_1                       1.000000
X_467_2                       1.000000
X_468_4                       1.000000
X_469_3                       1.000000
X_470_7                       1.000000
X_471_5                       1.000000
X_472_3                       1.000000
X_473_5                       1.000000
X_474_3                       1.000000
X_475_4                       1.000000
X_476_6                       1.000000
X_477_2                       1.000000
X_478_3                       1.000000
X_479_3                       1.000000
X_480_9                       1.000000
X_481_6                       1.000000
X_482_9                       1.000000
X_483_2                       1.000000
X_484_1                       1.000000
X_485_6                       1.000000
X_486_6                       1.000000
X_487_5                       1.000000
X_488_8                       1.000000
X_489_2                       1.000000
X_490_7                       1.000000
X_491_3                       1.000000
X_492_5                       1.000000
X_493_2                       1.000000
X_494_10                      1.000000
X_495_4                       1.000000
X_496_7                       1.000000
X_497_9                       1.000000
X_498_10                      1.000000
X_499_5                       1.000000
X_500_10                      1.000000
All other variables in the range 1-5001 are 0.
